\ Model max-covering
\ LP format - for model browsing. Use MPS format to capture full model detail.
Maximize
  x[0] + x[1] + x[2] + x[3] + x[4] + x[5] + x[6] + x[7] + x[8] + x[9]
   + 0 y[0] + 0 y[1] + 0 y[2] + 0 y[3] + 0 y[4] + 0 y[5] + 0 y[6] + 0 y[7]
   + 0 y[8] + 0 y[9]
Subject To
Bounds
Binaries
 x[0] x[1] x[2] x[3] x[4] x[5] x[6] x[7] x[8] x[9] y[0] y[1] y[2] y[3] y[4]
 y[5] y[6] y[7] y[8] y[9]
End
